Instance Name : rc101
Date : 2022-07-19
Solution
Route 1 : 63 33 28 30 34 50 80
Route 2 : 64 51 76 89 91
Route 3 : 92 31 29 27 26 32 93
Route 4 : 83 23 21 19 18 48 25
Route 5 : 61 81
Route 6 : 71 67 94 96
Route 7 : 95 62 85 84 56 66
Route 8 : 72 39 36 40 38 41 54 68
Route 9 : 65 52 57 22 49 20 24
Route 10 : 42 44 43 37 35 70
Route 11 : 14 47 12 73 79 46 55
Route 12 : 99 86 87 74
Route 13 : 82 11 15 16 9 10 13 17
Route 14 : 59 75 97 58 77
Route 15 : 45 5 2 7 6 8 3 1 4 100
Route 16 : 90
Route 17 : 69 98 88 53 78 60
